; sally-chc-benchmarks/./misc/fourslot_000.smt2
(set-logic HORN)

(declare-fun |invariant| ( Bool Bool Bool Real Bool Bool Bool Real Real Real Real Real Bool Bool Real ) Bool)

(assert
  (forall ( (A Bool) (B Bool) (C Bool) (D Real) (E Bool) (F Bool) (G Bool) (H Real) (I Real) (J Real) (K Real) (L Real) (M Bool) (N Bool) (O Real) ) 
    (=>
      (and
        (and (= L 0.0)
     (= K 0.0)
     (= J 0.0)
     (= I 0.0)
     (= H 0.0)
     (= D 0.0)
     (not N)
     (not M)
     (not G)
     (not F)
     (not E)
     (not C)
     (not B)
     (not A)
     (= O 0.0))
      )
      (invariant A B C D E F G H I J K L M N O)
    )
  )
)
(assert
  (forall ( (A Bool) (B Bool) (C Bool) (D Bool) (E Bool) (F Bool) (G Real) (H Real) (I Bool) (J Bool) (K Bool) (L Bool) (M Bool) (N Bool) (O Real) (P Real) (Q Real) (R Real) (S Real) (T Real) (U Real) (V Real) (W Real) (X Real) (Y Bool) (Z Bool) (A1 Bool) (B1 Bool) (C1 Real) (D1 Real) ) 
    (=>
      (and
        (invariant A C E G I K M O Q S U W Y A1 C1)
        (let ((a!1 (= X (ite A1 (ite Y 0.0 (ite A1 W S)) W)))
      (a!2 (= R (ite A1 Q (ite Y (ite A1 U Q) 0.0))))
      (a!3 (= T (ite A1 S (ite Y 0.0 (ite A1 W S)))))
      (a!4 (= V (ite A1 (ite Y (ite A1 U Q) 0.0) U)))
      (a!5 (= X (ite A1 (ite Y 1.0 (ite A1 W S)) W)))
      (a!6 (= R (ite A1 Q (ite Y (ite A1 U Q) 1.0))))
      (a!7 (= T (ite A1 S (ite Y 1.0 (ite A1 W S)))))
      (a!8 (= V (ite A1 (ite Y (ite A1 U Q) 1.0) U)))
      (a!9 (= X (ite A1 (ite Y 2.0 (ite A1 W S)) W)))
      (a!10 (= R (ite A1 Q (ite Y (ite A1 U Q) 2.0))))
      (a!11 (= T (ite A1 S (ite Y 2.0 (ite A1 W S)))))
      (a!12 (= V (ite A1 (ite Y (ite A1 U Q) 2.0) U)))
      (a!13 (= X (ite A1 (ite Y 3.0 (ite A1 W S)) W)))
      (a!14 (= R (ite A1 Q (ite Y (ite A1 U Q) 3.0))))
      (a!15 (= T (ite A1 S (ite Y 3.0 (ite A1 W S)))))
      (a!16 (= V (ite A1 (ite Y (ite A1 U Q) 3.0) U)))
      (a!17 (and (= B1 A1)
                 (= B A)
                 (= D C)
                 (= F E)
                 (= Z (not (ite A1 C A)))
                 (= X W)
                 (= D1 2.0)
                 (= R Q)
                 (= T S)
                 (= V U)
                 (= C1 1.0)))
      (a!19 (and (= J I)
                 (= L K)
                 (= N M)
                 (= H (ite K (ite M W S) (ite M U Q)))
                 (= O 3.0)
                 (= P 0.0))))
(let ((a!18 (or (and (or (and a!1 a!2 a!3 a!4)
                         (and a!5 a!6 a!7 a!8)
                         (and a!9 a!10 a!11 a!12)
                         (and a!13 a!14 a!15 a!16))
                     (= B1 A1)
                     (= B A)
                     (= D C)
                     (= F E)
                     (= Z Y)
                     (= D1 3.0)
                     (= C1 2.0))
                a!17
                (and (= B1 A1)
                     (= B A)
                     (= D C)
                     (= F A1)
                     (= Z Y)
                     (= X W)
                     (= D1 0.0)
                     (= R Q)
                     (= T S)
                     (= V U)
                     (= C1 4.0))
                (and (= B1 A1)
                     (= B (ite A1 A Y))
                     (= D (ite A1 Y C))
                     (= F E)
                     (= Z Y)
                     (= X W)
                     (= D1 4.0)
                     (= R Q)
                     (= T S)
                     (= V U)
                     (= C1 3.0))
                (and (= B A)
                     (= D C)
                     (= F E)
                     (= Z Y)
                     (= X W)
                     (= D1 1.0)
                     (= O 1.0)
                     (= R Q)
                     (= T S)
                     (= V U)
                     (= C1 0.0))
                (and (= B1 (not I))
                     (= B A)
                     (= D C)
                     (= F E)
                     (= Z Y)
                     (= X W)
                     (= D1 1.0)
                     (not (= O 1.0))
                     (= R Q)
                     (= T S)
                     (= V U)
                     (= C1 0.0))))
      (a!20 (or a!19
                (and (= J M) (= L K) (= N M) (= H G) (= O 1.0) (= P 2.0))
                (and (not L)
                     (= J I)
                     (= N M)
                     (= H G)
                     (= O 2.0)
                     (= P 3.0)
                     (= C1 3.0))
                (and L (= J I) (= N M) (= H G) (= O 2.0) (= P 3.0) (= C1 3.0))
                (and (not N)
                     (= J I)
                     (= L K)
                     (= H G)
                     (= O 0.0)
                     (= P 1.0)
                     (= C1 4.0))
                (and N (= J I) (= L K) (= H G) (= O 0.0) (= P 1.0) (= C1 4.0))
                (and (= J I)
                     (= L K)
                     (= N E)
                     (= H G)
                     (= O 0.0)
                     (= P 1.0)
                     (not (= C1 4.0)))
                (and (= J I)
                     (= L (ite M C A))
                     (= N M)
                     (= H G)
                     (= O 2.0)
                     (= P 3.0)
                     (not (= C1 3.0))))))
  (or (and a!18 (= J I) (= L K) (= N M) (= H G) (= P O))
      (and a!20
           (= B1 A1)
           (= B A)
           (= D C)
           (= F E)
           (= Z Y)
           (= X W)
           (= D1 C1)
           (= R Q)
           (= T S)
           (= V U)))))
      )
      (invariant B D F H J L N P R T V X Z B1 D1)
    )
  )
)
(assert
  (forall ( (A Bool) (B Bool) (C Bool) (D Real) (E Bool) (F Bool) (G Bool) (H Real) (I Real) (J Real) (K Real) (L Real) (M Bool) (N Bool) (O Real) ) 
    (=>
      (and
        (invariant A B C D E F G H I J K L M N O)
        (and (= H 3.0) (= N G) (= M F) (= O 2.0))
      )
      false
    )
  )
)

(check-sat)
(exit)
